db/data/277022937615182382724113114321724550.z3.out
-------------------
2500.260877207
